job_count = 22 ;
duration = [|11, 9, 12, 3|5, 27, 8, 3|19, 19, 19, 1|15, 29, 2, 3|14, 6, 11, 1|27, 7, 8, 8|30, 19, 6, 9|10, 7, 7, 7|34, 6, 15, 5|37, 6, 15, 9|36, 5, 17, 3|29, 13, 18, 1|25, 28, 14, 6|35, 27, 5, 1|4, 20, 7, 2|5, 19, 15, 6|10, 15, 4, 3|20, 22, 18, 7|5, 21, 12, 5|24, 14, 15, 7|23, 6, 3, 8|18, 15, 16, 5|] ;
machine_count = 4 ;
cost = [|11, 28, 55, 73|10, 37, 50, 49|16, 35, 52, 68|15, 32, 53, 50|14, 35, 56, 76|13, 37, 32, 45|19, 35, 54, 56|15, 36, 34, 58|13, 30, 43, 58|16, 28, 47, 78|17, 27, 41, 40|14, 27, 46, 60|13, 38, 52, 65|10, 38, 35, 62|15, 25, 51, 59|17, 29, 56, 63|13, 38, 32, 48|15, 29, 56, 61|13, 23, 47, 40|17, 37, 47, 59|10, 21, 49, 71|10, 38, 39, 59|] ;
deadline = [46, 46, 46, 46, 46, 46, 46, 46, 46, 46, 46, 46, 46, 46, 46, 46, 46, 46, 46, 46, 46, 46] ;
release = [0, 0, 0, 0, 0, 0, 0, 0, 0, 0, 0, 0, 0, 0, 0, 0, 0, 0, 0, 0, 0, 0] ;
resource = [|3, 3, 3, 3|9, 9, 9, 9|3, 3, 3, 3|6, 6, 6, 6|4, 4, 4, 4|4, 4, 4, 4|9, 9, 9, 9|6, 6, 6, 6|1, 1, 1, 1|2, 2, 2, 2|8, 8, 8, 8|1, 1, 1, 1|2, 2, 2, 2|9, 9, 9, 9|8, 8, 8, 8|5, 5, 5, 5|8, 8, 8, 8|2, 2, 2, 2|9, 9, 9, 9|8, 8, 8, 8|5, 5, 5, 5|9, 9, 9, 9|] ;
capacities = [10, 10, 10, 10] ;
